40
1 0 5
2 0 4
2 1 5
3 0 18
3 1 7
3 2 1
4 0 9
4 1 5
4 2 5
4 3 20
5 0 1
5 1 12
5 2 14
5 3 5
5 4 20
6 0 9
6 1 3
6 2 11
6 3 13
6 4 6
6 5 8
7 0 13
7 1 2
7 2 10
7 3 5
7 4 9
7 5 20
7 6 4
8 0 17
8 1 16
8 2 10
8 3 2
8 4 20
8 5 11
8 6 20
8 7 7
9 0 11
9 1 9
9 2 17
9 3 12
9 4 6
9 5 19
9 6 18
9 7 12
9 8 19
10 0 13
10 1 9
10 2 1
10 3 8
10 4 6
10 5 15
10 6 18
10 7 19
10 8 13
10 9 7
11 0 11
11 1 15
11 2 3
11 3 17
11 4 18
11 5 2
11 6 18
11 7 16
11 8 15
11 9 8
11 10 19
12 0 17
12 1 3
12 2 3
12 3 6
12 4 6
12 5 12
12 6 13
12 7 11
12 8 2
12 9 20
12 10 7
12 11 6
13 0 9
13 1 6
13 2 9
13 3 4
13 4 6
13 5 6
13 6 11
13 7 5
13 8 5
13 9 6
13 10 5
13 11 2
13 12 4
14 0 6
14 1 9
14 2 15
14 3 10
14 4 19
14 5 7
14 6 1
14 7 2
14 8 10
14 9 14
14 10 2
14 11 17
14 12 15
14 13 16
15 0 8
15 1 6
15 2 4
15 3 20
15 4 20
15 5 2
15 6 6
15 7 14
15 8 17
15 9 18
15 10 5
15 11 17
15 12 17
15 13 20
15 14 3
16 0 9
16 1 11
16 2 3
16 3 17
16 4 17
16 5 17
16 6 7
16 7 3
16 8 13
16 9 16
16 10 14
16 11 15
16 12 4
16 13 7
16 14 10
16 15 13
17 0 13
17 1 19
17 2 10
17 3 6
17 4 11
17 5 4
17 6 10
17 7 4
17 8 11
17 9 9
17 10 2
17 11 11
17 12 18
17 13 4
17 14 1
17 15 7
17 16 10
18 0 12
18 1 14
18 2 20
18 3 1
18 4 13
18 5 11
18 6 11
18 7 2
18 8 8
18 9 2
18 10 15
18 11 6
18 12 19
18 13 20
18 14 11
18 15 11
18 16 13
18 17 18
19 0 4
19 1 1
19 2 6
19 3 15
19 4 14
19 5 19
19 6 11
19 7 8
19 8 1
19 9 2
19 10 10
19 11 1
19 12 9
19 13 16
19 14 15
19 15 11
19 16 19
19 17 1
19 18 15
20 0 16
20 1 11
20 2 2
20 3 7
20 4 4
20 5 8
20 6 17
20 7 14
20 8 13
20 9 15
20 10 19
20 11 10
20 12 15
20 13 3
20 14 19
20 15 6
20 16 16
20 17 3
20 18 16
20 19 6
21 0 3
21 1 9
21 2 6
21 3 3
21 4 16
21 5 15
21 6 18
21 7 3
21 8 19
21 9 18
21 10 1
21 11 10
21 12 20
21 13 1
21 14 15
21 15 20
21 16 1
21 17 17
21 18 19
21 19 11
21 20 6
22 0 17
22 1 10
22 2 9
22 3 10
22 4 3
22 5 17
22 6 18
22 7 7
22 8 8
22 9 9
22 10 18
22 11 12
22 12 6
22 13 11
22 14 18
22 15 20
22 16 14
22 17 10
22 18 1
22 19 10
22 20 9
22 21 12
23 0 3
23 1 9
23 2 20
23 3 14
23 4 18
23 5 20
23 6 3
23 7 1
23 8 3
23 9 7
23 10 8
23 11 17
23 12 14
23 13 9
23 14 6
23 15 12
23 16 2
23 17 16
23 18 17
23 19 16
23 20 16
23 21 8
23 22 18
24 0 18
24 1 7
24 2 7
24 3 5
24 4 4
24 5 6
24 6 8
24 7 2
24 8 6
24 9 9
24 10 8
24 11 15
24 12 3
24 13 5
24 14 12
24 15 10
24 16 10
24 17 5
24 18 10
24 19 4
24 20 13
24 21 6
24 22 13
24 23 4
25 0 1
25 1 11
25 2 4
25 3 2
25 4 3
25 5 10
25 6 1
25 7 6
25 8 13
25 9 7
25 10 5
25 11 6
25 12 12
25 13 12
25 14 1
25 15 9
25 16 15
25 17 3
25 18 5
25 19 6
25 20 11
25 21 5
25 22 5
25 23 13
25 24 14
26 0 20
26 1 12
26 2 11
26 3 6
26 4 6
26 5 2
26 6 10
26 7 1
26 8 20
26 9 19
26 10 1
26 11 5
26 12 13
26 13 6
26 14 15
26 15 16
26 16 11
26 17 18
26 18 1
26 19 20
26 20 1
26 21 20
26 22 19
26 23 9
26 24 2
26 25 7
27 0 1
27 1 14
27 2 12
27 3 10
27 4 9
27 5 20
27 6 9
27 7 17
27 8 20
27 9 1
27 10 7
27 11 5
27 12 2
27 13 5
27 14 12
27 15 19
27 16 15
27 17 19
27 18 10
27 19 9
27 20 9
27 21 7
27 22 11
27 23 1
27 24 11
27 25 10
27 26 9
28 0 1
28 1 18
28 2 16
28 3 17
28 4 15
28 5 17
28 6 12
28 7 16
28 8 10
28 9 20
28 10 9
28 11 17
28 12 9
28 13 7
28 14 16
28 15 2
28 16 6
28 17 15
28 18 3
28 19 9
28 20 7
28 21 7
28 22 6
28 23 8
28 24 20
28 25 9
28 26 20
28 27 7
29 0 3
29 1 18
29 2 16
29 3 17
29 4 17
29 5 3
29 6 16
29 7 1
29 8 9
29 9 12
29 10 5
29 11 13
29 12 6
29 13 7
29 14 18
29 15 4
29 16 11
29 17 9
29 18 19
29 19 9
29 20 16
29 21 5
29 22 18
29 23 18
29 24 12
29 25 17
29 26 7
29 27 4
29 28 13
30 0 10
30 1 4
30 2 1
30 3 16
30 4 17
30 5 1
30 6 14
30 7 3
30 8 10
30 9 5
30 10 18
30 11 20
30 12 13
30 13 16
30 14 11
30 15 11
30 16 14
30 17 16
30 18 13
30 19 5
30 20 5
30 21 10
30 22 4
30 23 14
30 24 20
30 25 5
30 26 19
30 27 2
30 28 6
30 29 3
31 0 10
31 1 5
31 2 4
31 3 16
31 4 17
31 5 5
31 6 2
31 7 18
31 8 12
31 9 7
31 10 17
31 11 8
31 12 7
31 13 11
31 14 4
31 15 4
31 16 20
31 17 9
31 18 18
31 19 20
31 20 13
31 21 8
31 22 10
31 23 15
31 24 3
31 25 6
31 26 10
31 27 10
31 28 14
31 29 8
31 30 5
32 0 12
32 1 5
32 2 12
32 3 9
32 4 6
32 5 14
32 6 15
32 7 14
32 8 7
32 9 7
32 10 15
32 11 18
32 12 18
32 13 16
32 14 14
32 15 11
32 16 5
32 17 19
32 18 15
32 19 16
32 20 19
32 21 15
32 22 10
32 23 19
32 24 5
32 25 17
32 26 19
32 27 9
32 28 4
32 29 18
32 30 19
32 31 5
33 0 7
33 1 1
33 2 9
33 3 18
33 4 9
33 5 14
33 6 17
33 7 10
33 8 12
33 9 13
33 10 4
33 11 8
33 12 17
33 13 5
33 14 8
33 15 16
33 16 8
33 17 7
33 18 8
33 19 14
33 20 5
33 21 14
33 22 17
33 23 18
33 24 17
33 25 14
33 26 5
33 27 9
33 28 7
33 29 19
33 30 20
33 31 3
33 32 14
34 0 13
34 1 8
34 2 8
34 3 6
34 4 9
34 5 1
34 6 11
34 7 19
34 8 7
34 9 1
34 10 12
34 11 11
34 12 17
34 13 1
34 14 18
34 15 16
34 16 4
34 17 16
34 18 16
34 19 19
34 20 19
34 21 20
34 22 10
34 23 8
34 24 10
34 25 13
34 26 5
34 27 2
34 28 16
34 29 12
34 30 12
34 31 12
34 32 3
34 33 15
35 0 4
35 1 4
35 2 8
35 3 20
35 4 10
35 5 17
35 6 17
35 7 5
35 8 13
35 9 10
35 10 4
35 11 20
35 12 9
35 13 3
35 14 8
35 15 7
35 16 8
35 17 1
35 18 3
35 19 3
35 20 4
35 21 16
35 22 19
35 23 14
35 24 5
35 25 16
35 26 18
35 27 8
35 28 6
35 29 8
35 30 14
35 31 8
35 32 14
35 33 8
35 34 7
36 0 19
36 1 19
36 2 13
36 3 11
36 4 20
36 5 18
36 6 5
36 7 19
36 8 18
36 9 15
36 10 11
36 11 18
36 12 15
36 13 12
36 14 14
36 15 8
36 16 14
36 17 4
36 18 18
36 19 17
36 20 11
36 21 16
36 22 13
36 23 1
36 24 13
36 25 12
36 26 19
36 27 12
36 28 16
36 29 10
36 30 7
36 31 18
36 32 4
36 33 19
36 34 13
36 35 6
37 0 17
37 1 13
37 2 7
37 3 20
37 4 6
37 5 9
37 6 7
37 7 1
37 8 10
37 9 11
37 10 20
37 11 15
37 12 5
37 13 15
37 14 7
37 15 13
37 16 4
37 17 12
37 18 20
37 19 9
37 20 18
37 21 15
37 22 5
37 23 1
37 24 19
37 25 20
37 26 7
37 27 13
37 28 11
37 29 7
37 30 16
37 31 15
37 32 7
37 33 1
37 34 4
37 35 19
37 36 14
38 0 16
38 1 6
38 2 5
38 3 2
38 4 15
38 5 18
38 6 12
38 7 13
38 8 13
38 9 9
38 10 14
38 11 5
38 12 8
38 13 18
38 14 5
38 15 7
38 16 8
38 17 12
38 18 2
38 19 1
38 20 17
38 21 8
38 22 17
38 23 10
38 24 6
38 25 16
38 26 16
38 27 7
38 28 18
38 29 2
38 30 13
38 31 8
38 32 4
38 33 6
38 34 3
38 35 17
38 36 13
38 37 1
39 0 1
39 1 15
39 2 12
39 3 4
39 4 20
39 5 17
39 6 18
39 7 3
39 8 18
39 9 3
39 10 20
39 11 7
39 12 11
39 13 12
39 14 3
39 15 7
39 16 12
39 17 20
39 18 9
39 19 18
39 20 16
39 21 11
39 22 19
39 23 18
39 24 7
39 25 9
39 26 10
39 27 3
39 28 3
39 29 14
39 30 1
39 31 19
39 32 7
39 33 7
39 34 13
39 35 4
39 36 2
39 37 11
39 38 13
